319883 17824.9
99629.2 188331
10788.8 322984
20613.4 274693
262067 44490.1
12438 310642
140272 179606
95700.3 204034
237549 80228.5
85055.7 244031
80534.1 247376
173352 127986
206332 108190
88436 214103
257766 61391.2
51174.6 251610
38066.7 265974
163047 145924
247539 71855.8
37217.1 267071
187786 127542
31727.9 273431
133271 179950
18676 294390
169111 137144
224269 93447
228916 89838
168723 137767
193859 116765
215223 105695
159844 147514
86848.3 237495
273565 41245.8
295169 22695.7
37048.4 273312
281081 28171.2
259722 61156.3
216602 104175
71405.1 249397
85427.5 242954
278678 35910.5
17151.9 304942
309264 18843.7
209239 107941
144497 174134
210666 107680
219705 100087
271826 42900.5
310702 17871.9
288818 27207.9
290070 25600.9
